c Generated map
c Size: 12 * 12, weights in range: 1 to 10, walls: True, with ratio 0.1
c dim 1 of 5
c
p sp 144 214
c graph contains 144 nodes and 214 arcs
c
a 1 13 6
a 13 1 6
a 1 2 10
a 2 1 10
a 2 14 7
a 14 2 7
a 2 3 6
a 3 2 6
a 3 15 3
a 15 3 3
a 3 4 4
a 4 3 4
a 4 16 5
a 16 4 5
a 4 5 3
a 5 4 3
a 5 17 7
a 17 5 7
a 5 6 8
a 6 5 8
a 6 18 8
a 18 6 8
a 6 7 8
a 7 6 8
a 7 19 5
a 19 7 5
a 7 8 7
a 8 7 7
a 8 9 5
a 9 8 5
a 9 21 8
a 21 9 8
a 9 10 3
a 10 9 3
a 10 22 9
a 22 10 9
a 10 11 5
a 11 10 5
a 11 23 3
a 23 11 3
a 11 12 10
a 12 11 10
a 13 25 4
a 25 13 4
a 13 14 9
a 14 13 9
a 14 26 5
a 26 14 5
a 14 15 2
a 15 14 2
a 15 27 3
a 27 15 3
a 15 16 5
a 16 15 5
a 16 28 10
a 28 16 10
a 16 17 3
a 17 16 3
a 17 29 1
a 29 17 1
a 17 18 9
a 18 17 9
a 18 30 6
a 30 18 6
a 18 19 9
a 19 18 9
a 19 31 3
a 31 19 3
a 21 33 10
a 33 21 10
a 21 22 10
a 22 21 10
a 22 34 2
a 34 22 2
a 22 23 1
a 23 22 1
a 25 37 4
a 37 25 4
a 25 26 1
a 26 25 1
a 26 38 6
a 38 26 6
a 26 27 3
a 27 26 3
a 27 39 4
a 39 27 4
a 27 28 1
a 28 27 1
a 28 40 10
a 40 28 10
a 28 29 3
a 29 28 3
a 29 41 4
a 41 29 4
a 29 30 7
a 30 29 7
a 30 42 1
a 42 30 1
a 30 31 7
a 31 30 7
a 31 43 2
a 43 31 2
a 31 32 3
a 32 31 3
a 32 44 5
a 44 32 5
a 32 33 7
a 33 32 7
a 33 45 4
a 45 33 4
a 33 34 4
a 34 33 4
a 34 46 1
a 46 34 1
a 36 48 4
a 48 36 4
a 37 49 8
a 49 37 8
a 37 38 6
a 38 37 6
a 38 50 3
a 50 38 3
a 38 39 10
a 39 38 10
a 39 51 3
a 51 39 3
a 39 40 6
a 40 39 6
a 40 52 8
a 52 40 8
a 40 41 9
a 41 40 9
a 41 42 8
a 42 41 8
a 42 54 9
a 54 42 9
a 42 43 6
a 43 42 6
a 43 55 2
a 55 43 2
a 43 44 6
a 44 43 6
a 44 56 4
a 56 44 4
a 44 45 5
a 45 44 5
a 45 57 6
a 57 45 6
a 45 46 8
a 46 45 8
a 46 58 2
a 58 46 2
a 46 47 1
a 47 46 1
a 47 59 5
a 59 47 5
a 47 48 2
a 48 47 2
a 48 60 1
a 60 48 1
a 49 61 2
a 61 49 2
a 49 50 1
a 50 49 1
a 50 62 1
a 62 50 1
a 50 51 5
a 51 50 5
a 51 63 8
a 63 51 8
a 51 52 10
a 52 51 10
a 54 66 10
a 66 54 10
a 54 55 1
a 55 54 1
a 55 67 8
a 67 55 8
a 55 56 8
a 56 55 8
a 56 68 8
a 68 56 8
a 56 57 1
a 57 56 1
a 57 69 8
a 69 57 8
a 57 58 10
a 58 57 10
a 58 70 10
a 70 58 10
a 58 59 3
a 59 58 3
a 59 71 4
a 71 59 4
a 59 60 7
a 60 59 7
a 60 72 4
a 72 60 4
a 61 73 9
a 73 61 9
a 61 62 4
a 62 61 4
a 62 74 8
a 74 62 8
a 62 63 8
a 63 62 8
a 63 75 10
a 75 63 10
a 65 77 6
a 77 65 6
a 65 66 7
a 66 65 7
a 66 78 5
a 78 66 5
a 66 67 2
a 67 66 2
a 67 79 5
a 79 67 5
a 67 68 10
a 68 67 10
a 68 80 8
a 80 68 8
a 68 69 2
a 69 68 2
a 69 81 9
a 81 69 9
a 69 70 8
a 70 69 8
a 70 82 5
a 82 70 5
a 70 71 6
a 71 70 6
a 71 72 7
a 72 71 7
a 72 84 2
a 84 72 2
a 73 85 6
a 85 73 6
a 73 74 9
a 74 73 9
a 74 86 2
a 86 74 2
a 74 75 2
a 75 74 2
a 75 87 4
a 87 75 4
a 75 76 1
a 76 75 1
a 76 88 2
a 88 76 2
a 76 77 10
a 77 76 10
a 77 89 2
a 89 77 2
a 77 78 5
a 78 77 5
a 78 90 1
a 90 78 1
a 78 79 4
a 79 78 4
a 79 91 3
a 91 79 3
a 79 80 2
a 80 79 2
a 80 81 7
a 81 80 7
a 81 93 2
a 93 81 2
a 81 82 8
a 82 81 8
a 82 94 5
a 94 82 5
a 84 96 8
a 96 84 8
a 85 97 8
a 97 85 8
a 85 86 3
a 86 85 3
a 86 98 10
a 98 86 10
a 86 87 4
a 87 86 4
a 87 99 3
a 99 87 3
a 87 88 1
a 88 87 1
a 88 100 5
a 100 88 5
a 88 89 8
a 89 88 8
a 89 101 4
a 101 89 4
a 89 90 6
a 90 89 6
a 90 102 8
a 102 90 8
a 90 91 5
a 91 90 5
a 91 103 3
a 103 91 3
a 93 105 3
a 105 93 3
a 93 94 1
a 94 93 1
a 94 106 10
a 106 94 10
a 94 95 1
a 95 94 1
a 95 96 2
a 96 95 2
a 96 108 7
a 108 96 7
a 97 109 8
a 109 97 8
a 97 98 7
a 98 97 7
a 98 110 9
a 110 98 9
a 98 99 8
a 99 98 8
a 99 111 7
a 111 99 7
a 99 100 7
a 100 99 7
a 100 112 7
a 112 100 7
a 100 101 2
a 101 100 2
a 101 113 10
a 113 101 10
a 101 102 6
a 102 101 6
a 102 114 5
a 114 102 5
a 102 103 10
a 103 102 10
a 103 115 10
a 115 103 10
a 103 104 6
a 104 103 6
a 104 116 3
a 116 104 3
a 104 105 6
a 105 104 6
a 105 117 4
a 117 105 4
a 105 106 4
a 106 105 4
a 106 118 5
a 118 106 5
a 109 110 8
a 110 109 8
a 110 122 1
a 122 110 1
a 110 111 8
a 111 110 8
a 111 123 10
a 123 111 10
a 111 112 1
a 112 111 1
a 112 124 3
a 124 112 3
a 112 113 4
a 113 112 4
a 113 125 9
a 125 113 9
a 113 114 1
a 114 113 1
a 114 126 9
a 126 114 9
a 114 115 1
a 115 114 1
a 115 127 9
a 127 115 9
a 115 116 4
a 116 115 4
a 116 117 1
a 117 116 1
a 117 129 6
a 129 117 6
a 117 118 8
a 118 117 8
a 118 130 9
a 130 118 9
a 118 119 2
a 119 118 2
a 119 131 2
a 131 119 2
a 122 134 8
a 134 122 8
a 122 123 2
a 123 122 2
a 123 124 1
a 124 123 1
a 124 136 2
a 136 124 2
a 124 125 1
a 125 124 1
a 125 137 8
a 137 125 8
a 125 126 10
a 126 125 10
a 126 127 4
a 127 126 4
a 127 139 1
a 139 127 1
a 129 141 3
a 141 129 3
a 129 130 3
a 130 129 3
a 130 131 7
a 131 130 7
a 131 143 5
a 143 131 5
a 131 132 8
a 132 131 8
a 132 144 9
a 144 132 9
a 133 134 9
a 134 133 9
a 136 137 7
a 137 136 7
a 139 140 3
a 140 139 3
a 140 141 1
a 141 140 1
a 143 144 3
a 144 143 3
